NAME : single
TYPE : ATSP
DIMENSION : 8
EDGE_WEIGHT_TYPE : EXPLICIT
EDGE_WEIGHT_FORMAT : FULL_MATRIX
EDGE_WEIGHT_SECTION
0 1265 1145 1187 944 723 682 512 
0 0 289 97 285 431 528 666 
0 289 0 213 274 396 497 628 
0 97 213 0 233 364 464 595 
0 285 274 233 0 127 226 390 
0 431 396 364 127 0 99 244 
0 528 497 464 226 99 0 169 
0 666 628 595 390 244 169 0 
EOF